Input: ticf-13crafa.prec25.dzn
============================================================
Total Runtime: 8.6667 seconds
Input parsing: 0.0012 seconds
Constraint building: 1.8003 seconds
MaxSAT solving: 5.3762 seconds
============================================================

Total variables: 470993
Total clauses: 772312
MaxSAT found with cost: 0
NO SOLUTION FOUND
